# Solution for model GasLib-11
# Objective value = 4.0191838805957047e+01
loadshed[N01] 0
loadshed[N02] 0
loadshed[N03] 0
loadshed[N04] 0
loadshed[N05] 0
loadshed[entry01] 6.3849768989428890e-01
loadshed[entry03] 1
loadshed[entry02] 5.8685450273633033e-01
loadshed[exit01] 3.0475254173782829e-01
loadshed[exit02] 8.0768336080162340e-01
loadshed[exit03] 7.1152504120243543e-01
flow[entry01,entry03] 1.2612413930354805e+01
flow[N01,N02] 2.5224827860709606e+01
flow[entry02,N03] 1.2612413930354805e+01
flow[N02,exit01] 1.5160257075994579e+01
flow[N02,N04] 1.0064570784715029e+01
flow[N03,N04] 0
flow[N05,exit02] 5.0322853923575224e+00
flow[N05,exit03] 5.0322853923575153e+00
flow[entry03,N01] 1.2612413930354805e+01
flow[N04,N05] 1.0064570784715045e+01
flow[N01,N03] -1.2612413930354801e+01
pressure[N01] 6.2860560856659134e+01
pressure[N02] 48.5816825699774
pressure[N03] 6.2860560856659134e+01
pressure[N04] 4.2884486853273074e+01
pressure[N05] 4.2884486853273074e+01
pressure[entry01] 70
pressure[entry03] 6.2860560856659134e+01
pressure[entry02] 70
pressure[exit01] 40
pressure[exit02] 40
pressure[exit03] 40
interdiction[entry01,entry03] 0
interdiction[N01,N02] 0
interdiction[entry02,N03] 0
interdiction[N02,exit01] 0
interdiction[N02,N04] 0
interdiction[N03,N04] 1
interdiction[N05,exit02] 0
interdiction[N05,exit03] 0
interdiction[entry03,N01] 0
interdiction[N04,N05] 0
interdiction[N01,N03] 0
dual_flow_lower[entry01,entry03] 0
dual_flow_lower[N01,N02] 0
dual_flow_lower[entry02,N03] 0
dual_flow_lower[N02,exit01] 0
dual_flow_lower[N02,N04] 0
dual_flow_lower[N03,N04] 0
dual_flow_lower[N05,exit02] 0
dual_flow_lower[N05,exit03] 0
dual_flow_lower[entry03,N01] 0
dual_flow_lower[N04,N05] 0
dual_flow_lower[N01,N03] 0
dual_flow_upper[entry01,entry03] 0
dual_flow_upper[N01,N02] 0
dual_flow_upper[entry02,N03] 0
dual_flow_upper[N02,exit01] 0
dual_flow_upper[N02,N04] 0
dual_flow_upper[N03,N04] 6.6586913344620191e-01
dual_flow_upper[N05,exit02] 0
dual_flow_upper[N05,exit03] 0
dual_flow_upper[entry03,N01] 0
dual_flow_upper[N04,N05] 0
dual_flow_upper[N01,N03] 0
dual_PDAI_lower[entry01,entry03] 4.2041379767849352e-01
dual_PDAI_lower[N01,N02] 0.840827595356987
dual_PDAI_lower[entry02,N03] 4.2041379767849352e-01
dual_PDAI_lower[N02,exit01] 5.0534190253315248e-01
dual_PDAI_lower[N02,N04] 3.3548569282383450e-01
dual_PDAI_lower[N03,N04] 0
dual_PDAI_lower[N05,exit02] 1.6774284641191733e-01
dual_PDAI_lower[N05,exit03] 1.6774284641191733e-01
dual_PDAI_lower[entry03,N01] 4.2041379767849352e-01
dual_PDAI_lower[N04,N05] 3.3548569282383467e-01
dual_PDAI_lower[N01,N03] 0
dual_PDAI_upper[entry01,entry03] 0
dual_PDAI_upper[N01,N02] 0
dual_PDAI_upper[entry02,N03] 0
dual_PDAI_upper[N02,exit01] 0
dual_PDAI_upper[N02,N04] 0
dual_PDAI_upper[N03,N04] 0
dual_PDAI_upper[N05,exit02] 0
dual_PDAI_upper[N05,exit03] 0
dual_PDAI_upper[entry03,N01] 0
dual_PDAI_upper[N04,N05] 0
dual_PDAI_upper[N01,N03] 4.2041379767849352e-01
dual_pressure_lower[N01] 0
dual_pressure_lower[N02] 0
dual_pressure_lower[N03] 0
dual_pressure_lower[N04] 0
dual_pressure_lower[N05] 0
dual_pressure_lower[entry01] 0
dual_pressure_lower[entry03] 0
dual_pressure_lower[entry02] 0
dual_pressure_lower[exit01] 5.0534190253315248e-01
dual_pressure_lower[exit02] 1.6774284641191733e-01
dual_pressure_lower[exit03] 1.6774284641191733e-01
dual_pressure_upper[N01] 0
dual_pressure_upper[N02] 0
dual_pressure_upper[N03] 0
dual_pressure_upper[N04] 0
dual_pressure_upper[N05] 0
dual_pressure_upper[entry01] 4.2041379767849352e-01
dual_pressure_upper[entry03] 0
dual_pressure_upper[entry02] 4.2041379767849352e-01
dual_pressure_upper[exit01] 0
dual_pressure_upper[exit02] 0
dual_pressure_upper[exit03] 0
dual_loadshed_exit_lower[exit01] 0
dual_loadshed_exit_lower[exit02] 0
dual_loadshed_exit_lower[exit03] 0
dual_loadshed_exit_upper[exit01] 0
dual_loadshed_exit_upper[exit02] 0
dual_loadshed_exit_upper[exit03] 0
dual_loadshed_entry_lower[entry01] 0
dual_loadshed_entry_lower[entry03] 0
dual_loadshed_entry_lower[entry02] 0
dual_loadshed_entry_upper[entry01] 0
dual_loadshed_entry_upper[entry03] 0
dual_loadshed_entry_upper[entry02] 0
dual_flowConservation[N01] -2.3798130477802887e-01
dual_flowConservation[N02] -7.1394391433408655e-01
dual_flowConservation[N03] -2.3798130477802887e-01
dual_flowConservation[N04] -9.0385043822423083e-01
dual_flowConservation[N05] -9.0385043822423083e-01
dual_flowConservation[entry01] 0
dual_flowConservation[entry03] -2.3798130477802887e-01
dual_flowConservation[entry02] 0
dual_flowConservation[exit01] -1
dual_flowConservation[exit02] -1
dual_flowConservation[exit03] -1
aux_var_lower[entry01,entry03] 7.8029080597021462e+01
aux_var_lower[N01,N02] 9.0641494527376267e+01
aux_var_lower[entry02,N03] 7.8029080597021462e+01
aux_var_lower[N02,exit01] 8.0576923742661236e+01
aux_var_lower[N02,N04] 7.5481237451381688e+01
aux_var_lower[N03,N04] 0
aux_var_lower[N05,exit02] 7.0448952059024180e+01
aux_var_lower[N05,exit03] 7.0448952059024180e+01
aux_var_lower[entry03,N01] 7.8029080597021462e+01
aux_var_lower[N04,N05] 75.4812374513817
aux_var_lower[N01,N03] 5.2804252736311852e+01
aux_var_upper[entry01,entry03] 5.2804252736311852e+01
aux_var_upper[N01,N02] 4.0191838805957047e+01
aux_var_upper[entry02,N03] 5.2804252736311852e+01
aux_var_upper[N02,exit01] 5.0256409590672078e+01
aux_var_upper[N02,N04] 5.5352095881951634e+01
aux_var_upper[N03,N04] 0
aux_var_upper[N05,exit02] 6.0384381274309135e+01
aux_var_upper[N05,exit03] 6.0384381274309142e+01
aux_var_upper[entry03,N01] 5.2804252736311852e+01
aux_var_upper[N04,N05] 5.5352095881951612e+01
aux_var_upper[N01,N03] 7.8029080597021462e+01
aux_var_pdai_lower[entry01,entry03] 0
aux_var_pdai_lower[N01,N02] 0
aux_var_pdai_lower[entry02,N03] 0
aux_var_pdai_lower[N02,exit01] 0
aux_var_pdai_lower[N02,N04] 0
aux_var_pdai_lower[N03,N04] 4.9976074003386053e+01
aux_var_pdai_lower[N05,exit02] 0
aux_var_pdai_lower[N05,exit03] 0
aux_var_pdai_lower[entry03,N01] 0
aux_var_pdai_lower[N04,N05] 0
aux_var_pdai_lower[N01,N03] 0
aux_var_pdai_upper[entry01,entry03] 0
aux_var_pdai_upper[N01,N02] 0
aux_var_pdai_upper[entry02,N03] 0
aux_var_pdai_upper[N02,exit01] 0
aux_var_pdai_upper[N02,N04] 0
aux_var_pdai_upper[N03,N04] 1.0023925996613942e+01
aux_var_pdai_upper[N05,exit02] 0
aux_var_pdai_upper[N05,exit03] 0
aux_var_pdai_upper[entry03,N01] 0
aux_var_pdai_upper[N04,N05] 0
aux_var_pdai_upper[N01,N03] 0
aux_var_pressure_lower[N01] 2.2860560856659134e+01
aux_var_pressure_lower[N02] 8.5816825699774064e+00
aux_var_pressure_lower[N03] 2.2860560856659134e+01
aux_var_pressure_lower[N04] 2.8844868532730796e+00
aux_var_pressure_lower[N05] 2.8844868532730796e+00
aux_var_pressure_lower[entry01] 30
aux_var_pressure_lower[entry03] 2.2860560856659134e+01
aux_var_pressure_lower[entry02] 30
aux_var_pressure_lower[exit01] 0
aux_var_pressure_lower[exit02] 0
aux_var_pressure_lower[exit03] 0
aux_var_pressure_upper[N01] 7.1394391433408657e+00
aux_var_pressure_upper[N02] 2.1418317430022594e+01
aux_var_pressure_upper[N03] 7.1394391433408657e+00
aux_var_pressure_upper[N04] 2.7115513146726922e+01
aux_var_pressure_upper[N05] 2.7115513146726922e+01
aux_var_pressure_upper[entry01] 0
aux_var_pressure_upper[entry03] 7.1394391433408657e+00
aux_var_pressure_upper[entry02] 0
aux_var_pressure_upper[exit01] 30
aux_var_pressure_upper[exit02] 20
aux_var_pressure_upper[exit03] 20
aux_var_loadshed_exit_lower[exit01] 3.0475254173782784e-01
aux_var_loadshed_exit_lower[exit02] 8.0768336080162328e-01
aux_var_loadshed_exit_lower[exit03] 7.1152504120243554e-01
aux_var_loadshed_exit_upper[exit01] 6.9524745826217216e-01
aux_var_loadshed_exit_upper[exit02] 1.9231663919837674e-01
aux_var_loadshed_exit_upper[exit03] 2.8847495879756446e-01
aux_var_loadshed_entry_lower[entry01] 4.3259976898942893e+00
aux_var_loadshed_entry_lower[entry03] 1
aux_var_loadshed_entry_lower[entry02] 3.1582830741649017e+00
aux_var_loadshed_entry_upper[entry01] 0.361502310105711
aux_var_loadshed_entry_upper[entry03] 0
aux_var_loadshed_entry_upper[entry02] 4.1314549726366961e-01
WCcheckFlow[entry01,entry03] 10
WCcheckFlow[N01,N02] 6
WCcheckFlow[entry02,N03] -1
WCcheckFlow[N02,exit01] 1
WCcheckFlow[N02,N04] 4
WCcheckFlow[N03,N04] 0
WCcheckFlow[N05,exit02] 1
WCcheckFlow[N05,exit03] 1
WCcheckFlow[entry03,N01] 9
WCcheckFlow[N04,N05] 3
WCcheckFlow[N01,N03] 2
